sat
(:binary-propagations  408
 :decisions            430
 :del-clause           90
 :final-checks         7
 :max-generation       1
 :max-memory           23.64
 :memory               21.13
 :mk-bool-var          584
 :mk-clause            160
 :mk-clause-binary     390
 :num-allocs           9527806
 :num-checks           1
 :propagations         511
 :quant-instantiations 94
 :restarts             6
 :rlimit-count         177820
 :time                 0.06)
